200
100
100
100
100
100
100
99
99
98
97
97
97
96
96
94
93
93
92
92
92
91
91
91
90
90
90
88
88
88
88
88
88
87
86
86
85
85
85
85
85
84
84
84
84
83
83
82
82
81
81
81
80
80
80
79
79
78
78
78
77
77
77
77
77
76
75
75
75
75
74
74
74
74
74
74
74
73
73
73
72
72
71
71
70
70
70
69
68
68
68
67
67
67
67
67
67
67
67
66
66
66
65
64
64
64
64
63
63
62
62
62
61
61
60
60
60
59
59
59
59
56
56
56
54
53
52
52
51
51
51
50
50
50
50
49
49
49
49
48
48
47
46
46
46
46
46
45
45
43
43
43
42
41
41
39
39
39
39
38
37
37
37
36
36
36
35
34
34
34
34
32
32
31
29
29
28
28
28
27
27
26
26
26
25
25
24
24
23
23
22
22
21
21
21
21
21
20
20
20
20
20
